15
-1 245 795 413 105 593 454 305 432 750 568 680 730 280 676 
245 -1 557 462 318 355 337 430 231 535 326 541 664 300 577 
795 557 -1 785 844 202 498 853 514 170 233 452 685 687 568 
413 462 785 -1 339 623 288 148 690 660 630 443 372 162 373 
105 318 844 339 -1 643 445 213 526 778 626 669 685 238 646 
593 355 202 623 643 -1 347 671 348 216 47 393 611 505 492 
454 337 498 288 445 347 -1 375 516 376 364 226 330 222 239 
305 430 853 148 213 671 375 -1 660 749 668 567 520 166 512 
432 231 514 690 526 348 516 660 -1 564 301 675 844 530 740 
750 535 170 660 778 216 376 749 564 -1 264 286 518 588 403 
568 326 233 630 626 47 364 668 301 264 -1 432 644 503 527 
680 541 452 443 669 393 226 567 675 286 432 -1 233 436 117 
730 664 685 372 685 611 330 520 844 518 644 233 -1 451 119 
280 300 687 162 238 505 222 166 530 588 503 436 451 -1 407 
676 577 568 373 646 492 239 512 740 403 527 117 119 407 -1 
